758.15 0
0 38 65 11 66 59 14 8 0
0 7 53 35 19 54 13 57 15 5 29 45 0
0 58 10 31 55 25 9 39 72 12 26 0
0 37 20 70 60 71 69 36 47 48 30 68 75 0
0 67 34 46 52 27 4 0
0 50 18 24 49 3 44 32 40 17 0
0 2 74 21 61 28 62 73 33 6 0
0 23 56 41 43 42 64 22 1 63 16 51 0